data;
param: ORDERS: orderLengths  orderNum  maxRelax :=
1  200  20  0
2  200  38  25
3  300  35  20
4  375  24  0
;
param: STOCK: stockLengths stockNum stockCost :=
1  1200  100  1
;

param relaxCostMultiplier := 1;